p cnf 3 8
4 1 2 3 0
4 1 2 -3 0
4 1 -2 3 0
4 1 -2 -3 0
4 -1 2 3 0
4 -1 2 -3 0
4 -1 -2 3 0
4 -1 -2 -3 0
-4 1 2 3 0
-4 1 2 -3 0
-4 1 -2 3 0
-4 1 -2 -3 0
-4 -1 2 3 0
-4 -1 2 -3 0
-4 -1 -2 3 0
-4 -1 -2 -3 0
